p edge 17
e 0 2
e 0 9
e 0 14
e 0 16
e 1 3
e 1 4
e 1 8
e 1 11
e 1 13
e 1 15
e 2 6
e 2 8
e 2 9
e 2 12
e 2 16
e 3 4
e 3 6
e 3 8
e 3 9
e 3 15
e 4 15
e 5 10
e 5 12
e 5 14
e 6 8
e 6 9
e 7 11
e 7 12
e 8 11
e 8 12
e 10 12
e 11 12
e 12 14
e 12 16
e 13 15
e 14 16
c k 4
